/*********************************************
 * OPL 12.10.0.0 Data
 * Author: alex
 * Creation Date: Aug 27, 2020 at 11:44:14 AM
 *********************************************/



nbObjet = 5;
valeur = [6, 10, 5, 4, 3];
poids = [56, 62, 32, 48, 25];
distance = [
[0, 1, 4, 2, 3],
[1, 0, 5, 2, 5],
[4, 5, 0, 3, 2],
[2, 2, 3, 0, 2],
[3, 5, 2, 2, 0]];

